language Essence 1.3

letting blksize_delta be
        function(1 --> 8, 2 --> 8, 3 --> 8, 4 --> 8, 5 --> 10, 6 --> 8, 7 --> 10, 8 --> 8, 9 --> 8, 10 --> 8, 11 --> 8,
                 12 --> 9, 13 --> 9, 14 --> 8, 15 --> 8, 16 --> 8, 17 --> 8, 18 --> 8, 19 --> 8, 20 --> 8, 21 --> 8,
                 22 --> 8, 23 --> 8, 24 --> 8, 25 --> 8)
letting maxcars be
        function(1 --> 9, 2 --> 9, 3 --> 9, 4 --> 9, 5 --> 9, 6 --> 9, 7 --> 9, 8 --> 9, 9 --> 9, 10 --> 9, 11 --> 10,
                 12 --> 9, 13 --> 9, 14 --> 9, 15 --> 9, 16 --> 9, 17 --> 9, 18 --> 9, 19 --> 9, 20 --> 9, 21 --> 9,
                 22 --> 9, 23 --> 9, 24 --> 9, 25 --> 9)
letting n_cars be 214
letting n_classes be 26
letting n_options be 25
letting quantity be
        function(1 --> 8, 2 --> 8, 3 --> 8, 4 --> 8, 5 --> 8, 6 --> 8, 7 --> 8, 8 --> 8, 9 --> 8, 10 --> 8, 11 --> 8,
                 12 --> 8, 13 --> 8, 14 --> 11, 15 --> 8, 16 --> 8, 17 --> 10, 18 --> 8, 19 --> 8, 20 --> 8, 21 --> 8,
                 22 --> 8, 23 --> 8, 24 --> 8, 25 --> 8, 26 --> 9)
letting usage be
        relation((1, 3), (1, 17), (1, 19), (2, 11), (2, 24), (3, 20), (4, 14), (5, 3), (5, 5), (5, 10), (5, 25), (6, 7),
                 (6, 13), (6, 15), (6, 22), (7, 25), (8, 25), (9, 3), (9, 5), (9, 19), (9, 24), (9, 25), (10, 21),
                 (11, 4), (11, 5), (11, 6), (11, 10), (12, 6), (12, 8), (13, 2), (13, 3), (13, 8), (13, 9), (13, 18),
                 (13, 25), (14, 9), (14, 19), (14, 25), (15, 2), (15, 5), (15, 6), (15, 22), (16, 6), (16, 18),
                 (16, 23), (17, 25), (18, 8), (18, 19), (19, 3), (19, 7), (19, 19), (19, 25), (20, 11), (20, 15),
                 (20, 24), (21, 21), (21, 23), (22, 3), (22, 8), (22, 11), (22, 25), (23, 1), (23, 14), (23, 24),
                 (24, 3), (24, 7), (24, 17), (25, 5), (25, 10), (25, 21), (26, 12), (26, 13), (26, 16), (26, 19))
$ Visualisation for usage
$  1  3
$  1 17
$  1 19
$  2 11
$  2 24
$  3 20
$  4 14
$  5  3
$  5  5
$  5 10
$  5 25
$  6  7
$  6 13
$  6 15
$  6 22
$  7 25
$  8 25
$  9  3
$  9  5
$  9 19
$  9 24
$  9 25
$ 10 21
$ 11  4
$ 11  5
$ 11  6
$ 11 10
$ 12  6
$ 12  8
$ 13  2
$ 13  3
$ 13  8
$ 13  9
$ 13 18
$ 13 25
$ 14  9
$ 14 19
$ 14 25
$ 15  2
$ 15  5
$ 15  6
$ 15 22
$ 16  6
$ 16 18
$ 16 23
$ 17 25
$ 18  8
$ 18 19
$ 19  3
$ 19  7
$ 19 19
$ 19 25
$ 20 11
$ 20 15
$ 20 24
$ 21 21
$ 21 23
$ 22  3
$ 22  8
$ 22 11
$ 22 25
$ 23  1
$ 23 14
$ 23 24
$ 24  3
$ 24  7
$ 24 17
$ 25  5
$ 25 10
$ 25 21
$ 26 12
$ 26 13
$ 26 16
$ 26 19

